problems/csplib-prob015/SchursLemma-models/noch/O2/lingeling/model_1_4-3-7-solution000001.solution
language Essence 1.3

letting boxes be partition({1, 7}, {2, 3, 6}, {4, 5})
